Route #1: 68 84 128 25 16 32 7 19 36 13
Route #2: 127 118 54 12 89 65 45 61 90 64 44 74 11 100 81 62 33 125 123 82 137 142 55 139 95 57 66 99 20 52 88 73 51 49 50 71 70 124 115 136 126
Route #3: 109 9 40 59 135 101 117 108 92 134 38 103 10 113 63 112 26 75 94 3 76 129 105 138 34 121 30 87 1 111 72 60 79 98 31 6 102 53 110 114 43 8 107 5 86 41 78
Route #4: 97 120 85 35 91 56 83 28 133 18 47 96 104 132 23 21 14 37 122 77 22 119 80 39 29 42 131 69 140 141 15 27 106 24 46 67 58 48 93 2 17 116 4 130
Cost 11819.000000